 Building Supercell From CONTCAR File   
   1.00000000000000     
    11.6929931641000007    0.0000000000000000    0.0000000000000000
     0.0000000000000000   17.4283905029999993    0.0000000000000000
     7.4164336527000003    0.0000000000000000   11.6569747749000001
   Mg   B    H 
     8    96    96
Direct
0.960290420000000	0.00519919000000000	0.280912060000000
0.960473900000000	0.505262340000000	0.280110740000000
0.0333642300000000	0.465531060000000	0.733258000000000
0.0333599500000000	0.965562390000000	0.732850540000000
0.536760970000000	0.291348240000000	0.240472680000000
0.537847020000000	0.791322220000000	0.239943920000000
0.482319910000000	0.207890730000000	0.747738200000000
0.483737760000000	0.706242650000000	0.746407970000000
0.949243310000000	0.436035860000000	0.929065810000000
0.948265100000000	0.937086040000000	0.929693900000000
0.172547780000000	0.480732340000000	0.428719200000000
0.172752300000000	0.981469160000000	0.429741540000000
0.824064000000000	0.00224373000000000	0.555693830000000
0.824909230000000	0.501669680000000	0.556424100000000
0.0234031800000000	0.0469099300000000	0.0923876000000000
0.0230825200000000	0.547585750000000	0.0922185900000000
0.0897808200000000	0.484770130000000	0.348195280000000
0.0890075600000000	0.984215490000000	0.348727340000000
0.946782350000000	0.0544620400000000	0.929281530000000
0.946174790000000	0.554126340000000	0.930031310000000
0.0329029700000000	0.449205190000000	0.0997928100000000
0.0319288800000000	0.947836850000000	0.0996505900000000
0.896697170000000	0.498713800000000	0.643057730000000
0.896254300000000	0.996959220000000	0.643739590000000
0.525105690000000	0.320284030000000	0.0632216600000000
0.523717810000000	0.820169490000000	0.0651204600000000
0.419819090000000	0.244728650000000	0.625175660000000
0.419401210000000	0.744954700000000	0.625634640000000
0.639928960000000	0.281820870000000	0.348462330000000
0.640632610000000	0.781586160000000	0.347548010000000
0.430235540000000	0.188923100000000	0.958567190000000
0.428937380000000	0.689438820000000	0.959604240000000
0.466907890000000	0.162530990000000	0.519295100000000
0.466814160000000	0.662601440000000	0.519800080000000
0.649330930000000	0.279150980000000	0.939646810000000
0.648892100000000	0.779348040000000	0.938755960000000
0.301198650000000	0.229172470000000	0.0793212200000000
0.303838260000000	0.729406390000000	0.0770277200000000
0.585375170000000	0.359316680000000	0.461171050000000
0.585158290000000	0.859215030000000	0.462019680000000
0.0958644700000000	0.494481670000000	0.874665580000000
0.0962995100000000	0.995261200000000	0.874141190000000
0.105744090000000	0.0649408600000000	0.412998240000000
0.107132620000000	0.565708620000000	0.411343860000000
0.873774240000000	0.420136910000000	0.575549130000000
0.876732020000000	0.921068960000000	0.574613800000000
0.866481190000000	0.482622190000000	0.165771740000000
0.864331740000000	0.981421810000000	0.165992470000000
0.0619000400000000	0.411702950000000	0.433987050000000
0.0609021600000000	0.911173120000000	0.434023730000000
0.813935880000000	0.496306900000000	0.0547106400000000
0.814218700000000	0.996244750000000	0.0543289600000000
0.162881720000000	0.499269800000000	0.971877610000000
0.160865660000000	0.998117450000000	0.972236480000000
0.942066420000000	0.0821621800000000	0.543640630000000
0.942299970000000	0.582162880000000	0.542713300000000
0.526499060000000	0.340228630000000	0.939486530000000
0.527150490000000	0.839793550000000	0.939630080000000
0.587772130000000	0.204233170000000	0.549037170000000
0.588128890000000	0.703728780000000	0.548525040000000
0.486202340000000	0.320695040000000	0.418650240000000
0.486064080000000	0.820817620000000	0.417905580000000
0.431665110000000	0.158553690000000	0.0754223400000000
0.429685420000000	0.659205320000000	0.0749088400000000
0.377618430000000	0.242761920000000	0.523899680000000
0.378713070000000	0.743231740000000	0.521689550000000
0.568773150000000	0.216775650000000	0.0689388100000000
0.568097830000000	0.715595040000000	0.0692940500000000
0.389887080000000	0.281729850000000	0.947684000000000
0.391109980000000	0.781331890000000	0.946311840000000
0.694742310000000	0.280328660000000	0.435918300000000
0.693911790000000	0.780456700000000	0.438023420000000
0.375323890000000	0.329986470000000	0.0718160700000000
0.373444170000000	0.830445460000000	0.0725689300000000
0.569576460000000	0.308020990000000	0.578196120000000
0.570728570000000	0.809238250000000	0.576624750000000
0.501764200000000	0.208223680000000	0.398651620000000
0.500770110000000	0.708813060000000	0.399391480000000
0.598213390000000	0.182552310000000	0.940598660000000
0.598258940000000	0.682375890000000	0.940710270000000
0.0955324200000000	0.412908680000000	0.929837860000000
0.0952491600000000	0.913210800000000	0.929222970000000
0.0768494100000000	0.0475280200000000	0.550521670000000
0.0773611800000000	0.547378820000000	0.551702910000000
0.919852750000000	0.452578280000000	0.439405800000000
0.920480880000000	0.953328760000000	0.440262400000000
0.900213990000000	0.0716472100000000	0.0781986400000000
0.900474240000000	0.571367290000000	0.0789012700000000
0.383289940000000	0.248289440000000	0.158203950000000
0.381650430000000	0.748384460000000	0.158076360000000
0.424221850000000	0.337764170000000	0.563628500000000
0.423974830000000	0.837192290000000	0.565215370000000
0.639230110000000	0.187725710000000	0.399021410000000
0.639621060000000	0.688388840000000	0.400373950000000
0.555564940000000	0.250782050000000	0.874688160000000
0.556739450000000	0.749537290000000	0.875079170000000
0.896440330000000	0.415587980000000	0.0599747700000000
0.894851490000000	0.915178960000000	0.0609881300000000
0.0576896600000000	0.447265500000000	0.556692250000000
0.0584755000000000	0.948221590000000	0.555891590000000
0.958905280000000	0.0572215500000000	0.421581180000000
0.958875320000000	0.556855720000000	0.422497270000000
0.0833431000000000	0.0828799100000000	0.959837050000000
0.0824398200000000	0.584631090000000	0.960275020000000
0.910048660000000	0.396540570000000	0.874819880000000
0.908247930000000	0.897437180000000	0.873320950000000
0.269420010000000	0.475950730000000	0.422320450000000
0.272755080000000	0.974655110000000	0.423434110000000
0.717712700000000	0.0239845000000000	0.568222500000000
0.708845780000000	0.525916940000000	0.572382620000000
0.0217238500000000	0.0996007300000000	0.153504940000000
0.0267133800000000	0.596728470000000	0.150526120000000
0.138891200000000	0.486534220000000	0.237402470000000
0.133262400000000	0.986600300000000	0.245477820000000
0.975123210000000	0.101065430000000	0.842213260000000
0.968161150000000	0.602586600000000	0.850479960000000
0.0682205900000000	0.412873190000000	0.154633420000000
0.0632811000000000	0.914019400000000	0.154187780000000
0.836333190000000	0.0188578200000000	0.748351880000000
0.832443420000000	0.517841530000000	0.752136290000000
0.509528980000000	0.366373680000000	0.140454380000000
0.513328030000000	0.864883400000000	0.133193520000000
0.338676540000000	0.251246780000000	0.733387640000000
0.338550760000000	0.750547710000000	0.728892300000000
0.719764280000000	0.286886320000000	0.238351340000000
0.718936580000000	0.786689280000000	0.237984400000000
0.388630190000000	0.141385510000000	0.915904220000000
0.395497840000000	0.639430630000000	0.912865450000000
0.439160920000000	0.0995225600000000	0.503811040000000
0.440878000000000	0.601176120000000	0.502382220000000
0.782353530000000	0.280911660000000	0.867494330000000
0.786439360000000	0.781584270000000	0.871609530000000
0.181288270000000	0.221782150000000	0.131231900000000
0.178928230000000	0.724011470000000	0.134321710000000
0.644889140000000	0.417429650000000	0.450745470000000
0.644482490000000	0.918489530000000	0.448626860000000
0.173660280000000	0.00964619000000000	0.766960790000000
0.170988320000000	0.512245470000000	0.768418480000000
0.176328860000000	0.121820280000000	0.358884410000000
0.163984120000000	0.627497490000000	0.361832840000000
0.824861300000000	0.353509870000000	0.629529400000000
0.830114830000000	0.857054110000000	0.626993060000000
0.803514450000000	0.462896100000000	0.262312580000000
0.800193300000000	0.960999780000000	0.261543540000000
0.0667661700000000	0.337833860000000	0.428084500000000
0.0667638500000000	0.835612020000000	0.428782210000000
0.692790720000000	0.00354634000000000	0.0938708800000000
0.694324340000000	0.504308400000000	0.0928749200000000
0.276027940000000	0.491540470000000	0.926266650000000
0.283609550000000	0.993768170000000	0.920739520000000
0.918326120000000	0.142132080000000	0.572761250000000
0.917272980000000	0.645873070000000	0.573819100000000
0.564469690000000	0.400294890000000	0.892484220000000
0.565920950000000	0.904037120000000	0.894483330000000
0.624881670000000	0.153050710000000	0.595613790000000
0.619590960000000	0.654115390000000	0.595528540000000
0.405609000000000	0.354517500000000	0.399455530000000
0.403851440000000	0.855396390000000	0.404627280000000
0.411296970000000	0.104330480000000	0.137237820000000
0.410436070000000	0.602410900000000	0.133769150000000
0.266428460000000	0.265152170000000	0.538876470000000
0.267230280000000	0.763219840000000	0.537352670000000
0.611781530000000	0.194629220000000	0.127348890000000
0.604255580000000	0.692901300000000	0.132453550000000
0.351626650000000	0.304848050000000	0.880756840000000
0.353589430000000	0.808802200000000	0.882634130000000
0.810832880000000	0.296208770000000	0.409232700000000
0.815527840000000	0.795398840000000	0.406593740000000
0.289211160000000	0.377867980000000	0.131219670000000
0.293472660000000	0.878551940000000	0.136539840000000
0.619870740000000	0.333649830000000	0.626231660000000
0.616375970000000	0.833514830000000	0.629892910000000
0.480321770000000	0.201744320000000	0.333875820000000
0.475924150000000	0.701922930000000	0.333652000000000
0.655146310000000	0.123121780000000	0.894079720000000
0.653909350000000	0.621344730000000	0.901978740000000
0.153983390000000	0.352238680000000	0.886822220000000
0.152052100000000	0.853322590000000	0.890720050000000
0.0868730200000000	0.0775983300000000	0.627825690000000
0.0810005600000000	0.579903120000000	0.627122880000000
0.869050500000000	0.416036000000000	0.387674960000000
0.867914340000000	0.918334890000000	0.390623450000000
0.830143270000000	0.131350110000000	0.130625730000000
0.832291960000000	0.628077690000000	0.137319300000000
0.343476720000000	0.261475710000000	0.252990100000000
0.341691260000000	0.762843940000000	0.249140030000000
0.365988600000000	0.385217430000000	0.623909150000000
0.359347150000000	0.884903490000000	0.623800800000000
0.712894930000000	0.136197630000000	0.339252770000000
0.719388760000000	0.635326340000000	0.332504970000000
0.616890960000000	0.268759620000000	0.768905370000000
0.621558860000000	0.769576840000000	0.762436820000000
0.857692970000000	0.349605140000000	0.110816700000000
0.855722090000000	0.849192670000000	0.113431970000000
0.113667400000000	0.396349260000000	0.585978060000000
0.109524060000000	0.894934880000000	0.586535180000000
0.912288480000000	0.0857136200000000	0.377552830000000
0.912533130000000	0.585102370000000	0.377802510000000
0.149588040000000	0.146937380000000	0.922084080000000
0.152519000000000	0.647235610000000	0.920600030000000